c   #vars: 113   #clauses: 542   #literals: 1504
c 
p cnf 113 542
-1 -2 0
26 68 -91 -107 0
-4 -5 0
-6 -7 0
-8 -9 0
-30 75 76 79 0
-11 -12 0
-13 -14 0
84 85 94 95 0
34 35 110 -113 0
-15 -16 0
-17 -18 0
-19 -20 0
-21 -22 0
-23 -24 0
3 4 5 -73 0
34 35 -82 110 0
27 -32 53 54 0
15 16 40 -57 0
-28 -29 0
-30 -31 0
-32 -33 0
-34 -35 0
-36 -37 0
-38 -39 0
28 29 57 -65 0
-41 -42 0
-43 -44 0
-45 -46 0
-47 -48 0
-49 -50 0
-51 -52 0
-53 -54 0
-55 -56 0
-34 -70 110 113 0
-58 -59 0
-60 -61 0
-62 -63 0
-64 -65 0
-66 -67 0
38 39 86 87 0
1 2 100 101 0
-34 88 89 93 0
-69 -70 0
-71 -72 0
77 78 106 107 0
96 97 98 99 0
-73 -74 0
-75 -76 0
-77 -78 0
-80 -81 0
47 48 90 -104 0
-82 -83 0
-84 -85 0
-86 -87 0
-88 -89 0
32 33 45 46 0
21 22 23 24 0
-91 -92 0
13 14 69 70 0
13 14 88 89 0
-94 -95 0
-96 -97 0
-98 -99 0
32 33 94 95 0
-100 -101 0
-102 -103 0
-104 -105 0
-106 -107 0
1 2 49 50 0
-108 -109 0
51 52 106 107 0
-1 68 91 92 0
11 12 15 16 0
-111 -112 0
3 60 61 -73 0
1 2 4 5 0
-1 -4 0
-2 -5 0
-1 -41 0
-2 -42 0
49 50 88 89 0
-1 -47 0
-2 -48 0
-1 -49 0
-2 -50 0
-11 88 89 93 0
-2 -68 0
4 5 71 72 0
-1 -98 0
-2 -99 0
4 5 66 67 0
-1 -100 0
-2 -101 0
10 36 37 -91 0
-3 -5 0
8 9 100 101 0
10 -17 36 37 0
-3 -61 0
55 56 62 63 0
23 24 -75 79 0
-3 -74 0
25 34 35 -53 0
3 -60 73 74 0
6 7 82 83 0
-4 -21 0
-5 -22 0
6 7 47 48 0
-4 -28 0
-5 -29 0
-4 -36 0
-5 -37 0
66 67 71 72 0
-4 -66 0
-5 -67 0
51 52 73 74 0
-4 -71 0
-5 -72 0
6 7 8 9 0
-6 -8 0
-7 -9 0
8 9 11 12 0
-6 -21 0
-7 -22 0
10 -17 91 92 0
-6 -32 0
-7 -33 0
49 50 80 81 0
-6 -47 0
-7 -48 0
3 -4 60 61 0
-6 -55 0
-7 -56 0
82 83 84 85 0
-6 -82 0
-7 -83 0
-15 40 49 50 0
-6 -98 0
-7 -99 0
-11 60 61 93 0
-8 -11 0
-9 -12 0
-8 -21 0
-9 -22 0
-8 -30 0
-9 -31 0
36 37 94 95 0
3 -4 73 74 0
13 14 102 103 0
-8 -100 0
-9 -101 0
26 -68 106 107 0
6 7 55 56 0
10 17 18 -91 0
-16 26 106 107 0
-10 -18 0
-15 -29 40 57 0
28 29 -47 -48 0
-10 -37 0
30 31 108 109 0
-28 -29 47 48 0
-10 -92 0
41 42 84 85 0
-11 -15 0
-12 -16 0
30 31 73 74 0
-12 -93 0
60 61 104 105 0
-11 -98 0
-12 -99 0
-13 -28 0
-14 -29 0
43 44 80 81 0
-13 -69 0
-14 -70 0
47 48 -86 90 0
69 70 -110 113 0
11 12 -34 93 0
-13 -88 0
-14 -89 0
4 5 21 22 0
-1 -16 26 68 0
23 24 64 65 0
-13 -102 0
-14 -103 0
8 9 21 22 0
-13 -106 0
-14 -107 0
55 56 77 78 0
25 53 54 -108 0
58 59 75 76 0
25 -34 53 54 0
-16 26 68 -91 0
-15 -23 0
-16 -24 0
51 52 98 99 0
-15 -26 0
-15 27 53 54 0
21 22 108 109 0
15 16 40 -49 0
-16 -27 0
-29 40 -49 57 0
28 29 -40 57 0
-16 -40 0
38 39 69 70 0
-17 -55 0
-18 -56 0
32 33 66 67 0
-17 -58 0
-18 -59 0
1 2 98 99 0
-17 -62 0
-18 -63 0
30 31 -75 79 0
-17 -82 0
-18 -83 0
25 -53 108 109 0
-19 -49 0
-20 -50 0
32 33 88 89 0
-19 -51 0
-20 -52 0
38 39 100 101 0
-19 -82 0
-20 -83 0
36 37 102 103 0
-19 -108 0
-20 -109 0
47 48 77 78 0
-21 -23 0
-22 -24 0
13 14 28 29 0
-21 -55 0
-22 -56 0
4 5 28 29 0
-21 -75 0
-22 -76 0
1 2 47 48 0
-21 -108 0
-22 -109 0
-11 34 35 93 0
-23 -32 0
-24 -33 0
-23 -58 0
-24 -59 0
66 67 80 81 0
-23 -64 0
-24 -65 0
-24 -79 0
3 4 5 -60 0
15 16 26 -107 0
15 16 26 -68 0
6 7 21 22 0
-1 26 68 -107 0
82 83 110 -113 0
-25 -35 0
19 20 108 109 0
-34 82 83 110 0
-25 -54 0
64 65 106 107 0
-25 -109 0
58 59 100 101 0
11 12 -88 93 0
15 16 27 -53 0
69 70 75 76 0
-26 -106 0
15 16 27 -32 0
38 39 60 61 0
-65 -82 110 113 0
-27 -33 0
30 31 75 76 0
-70 -82 110 113 0
-27 -54 0
17 18 62 63 0
-28 -53 0
-29 -54 0
-60 88 89 93 0
-28 -57 0
-34 -65 110 113 0
47 48 82 83 0
-28 -60 0
-29 -61 0
8 9 30 31 0
-28 -75 0
-29 -76 0
30 31 34 35 0
-30 -34 0
-31 -35 0
19 20 51 52 0
-30 -45 0
-31 -46 0
41 42 77 78 0
-30 -73 0
-31 -74 0
34 35 91 92 0
-30 -75 0
-31 -76 0
-31 -79 0
1 2 41 42 0
-30 -108 0
-31 -109 0
-47 90 104 105 0
-32 -45 0
-33 -46 0
32 33 58 59 0
-32 -58 0
-33 -59 0
41 42 71 72 0
-32 -66 0
-33 -67 0
36 37 73 74 0
-32 -88 0
-33 -89 0
6 7 98 99 0
-32 -94 0
-33 -95 0
86 87 108 109 0
-34 -91 0
-35 -92 0
-35 -93 0
4 5 36 37 0
-34 -100 0
-35 -101 0
-35 -110 0
-15 40 57 -65 0
-34 -111 0
-35 -112 0
43 44 58 59 0
-36 -41 0
-37 -42 0
60 61 -88 93 0
-36 -43 0
-37 -44 0
25 34 35 -108 0
-36 -73 0
-37 -74 0
21 22 55 56 0
-36 -94 0
-37 -95 0
15 16 23 24 0
-36 -102 0
-37 -103 0
-38 -60 0
-39 -61 0
-38 -69 0
-39 -70 0
104 105 106 107 0
-38 -86 0
-39 -87 0
55 56 66 67 0
-38 -94 0
-39 -95 0
55 56 71 72 0
-38 -100 0
-39 -101 0
94 95 102 103 0
-40 57 64 65 0
-40 -50 0
-29 57 64 65 0
23 24 -30 79 0
28 29 75 76 0
-41 -71 0
-42 -72 0
58 59 71 72 0
-41 -77 0
-42 -78 0
-41 -84 0
-42 -85 0
-26 68 91 92 0
-43 -58 0
-44 -59 0
-43 -80 0
-44 -81 0
-43 -91 0
-44 -92 0
84 85 100 101 0
-45 -58 0
-46 -59 0
28 29 53 54 0
-45 -64 0
-46 -65 0
34 35 -88 93 0
-47 -77 0
-48 -78 0
19 20 49 50 0
-47 -82 0
-48 -83 0
-48 -90 0
-49 -80 0
-50 -81 0
60 61 62 63 0
-49 -86 0
-50 -87 0
43 44 91 92 0
-49 -88 0
-50 -89 0
53 54 111 112 0
-51 -73 0
-52 -74 0
-51 -91 0
-52 -92 0
40 49 50 -57 0
-51 -98 0
-52 -99 0
86 87 98 99 0
-51 -106 0
-52 -107 0
62 63 80 81 0
-53 -94 0
-54 -95 0
40 -49 57 -65 0
-53 -111 0
-54 -112 0
45 46 64 65 0
-55 -62 0
-56 -63 0
21 22 75 76 0
-55 -66 0
-56 -67 0
73 74 104 105 0
-55 -71 0
-56 -72 0
10 -36 91 92 0
-55 -77 0
-56 -78 0
36 37 43 44 0
-57 -64 0
-23 30 31 79 0
-58 -71 0
-59 -72 0
-58 -75 0
-59 -76 0
6 7 32 33 0
-58 -100 0
-59 -101 0
-60 -62 0
-61 -63 0
96 97 102 103 0
-61 -93 0
-60 -104 0
-61 -105 0
30 31 45 46 0
-62 -80 0
-63 -81 0
-62 -94 0
-63 -95 0
34 35 111 112 0
-64 -106 0
-65 -107 0
-64 -113 0
62 63 94 95 0
-66 -71 0
-67 -72 0
23 24 58 59 0
-66 -80 0
-67 -81 0
45 46 58 59 0
64 65 -70 113 0
64 65 -110 113 0
17 18 55 56 0
-15 27 32 33 0
11 12 -60 93 0
-68 -92 0
-69 -75 0
-70 -76 0
17 18 82 83 0
-69 -113 0
98 99 106 107 0
27 32 33 -53 0
25 -34 108 109 0
-73 -104 0
-74 -105 0
-76 -79 0
108 109 111 112 0
-75 -91 0
-76 -92 0
100 101 106 107 0
13 14 106 107 0
-77 -84 0
-78 -85 0
-77 -106 0
-78 -107 0
36 37 41 42 0
-86 90 104 105 0
-65 69 70 113 0
86 87 90 -104 0
19 20 82 83 0
10 17 18 -36 0
77 78 84 85 0
-82 -84 0
-83 -85 0
96 97 111 112 0
-83 -110 0
49 50 86 87 0
-84 -94 0
-85 -95 0
34 35 -60 93 0
-84 -96 0
-85 -97 0
86 87 102 103 0
-84 -100 0
-85 -101 0
11 12 98 99 0
1 2 68 -91 0
-87 -90 0
51 52 91 92 0
-86 -98 0
-87 -99 0
75 76 91 92 0
-86 -102 0
-87 -103 0
-34 60 61 93 0
-86 -108 0
-87 -109 0
-23 75 76 79 0
-89 -93 0
28 29 60 61 0
1 2 -26 68 0
-90 -105 0
17 18 58 59 0
-94 -102 0
-95 -103 0
-47 86 87 90 0
-96 -98 0
-97 -99 0
53 54 94 95 0
-96 -102 0
-97 -103 0
-96 -111 0
-97 -112 0
34 35 100 101 0
-98 -106 0
-99 -107 0
23 24 32 33 0
-100 -106 0
-101 -107 0
84 85 96 97 0
-104 -106 0
-105 -107 0
-108 -111 0
-109 -112 0
38 39 94 95 0
